5
5
0 822 536 1254 57 
822 0 290 853 839 
536 290 0 968 557 
1254 853 968 0 1228 
57 839 557 1228 0 
0 784 483 316 165 
784 0 302 892 622 
483 302 0 628 324 
316 892 628 0 352 
165 622 324 352 0 
0 803 766 941 553 
803 0 177 576 250 
766 177 0 405 260 
941 576 405 0 609 
553 250 260 609 0 
0 731 480 165 710 
731 0 373 697 62 
480 373 0 381 392 
165 697 381 0 690 
710 62 392 690 0 
0 339 456 695 131 
339 0 455 700 332 
456 455 0 254 327 
695 700 254 0 564 
131 332 327 564 0 
